p edge 38 152
e 1 14
e 1 17
e 1 35
e 1 36
e 2 4
e 2 16
e 2 20
e 2 34
e 3 2
e 3 10
e 3 22
e 3 29
e 4 15
e 4 19
e 4 29
e 4 36
e 5 17
e 5 27
e 5 28
e 5 36
e 6 16
e 6 21
e 6 25
e 6 27
e 7 5
e 7 12
e 7 15
e 7 23
e 8 6
e 8 7
e 8 10
e 8 36
e 9 3
e 9 4
e 9 14
e 9 33
e 10 4
e 10 25
e 10 28
e 10 31
e 11 6
e 11 16
e 11 23
e 11 38
e 12 3
e 12 11
e 12 14
e 12 26
e 13 14
e 13 15
e 13 23
e 13 25
e 14 20
e 14 20
e 14 21
e 14 23
e 15 11
e 15 14
e 15 26
e 15 33
e 16 3
e 16 9
e 16 18
e 16 19
e 17 13
e 17 21
e 17 34
e 17 34
e 18 5
e 18 19
e 18 31
e 18 32
e 19 11
e 19 25
e 19 37
e 19 38
e 20 5
e 20 25
e 20 31
e 20 35
e 21 2
e 21 5
e 21 8
e 21 11
e 22 8
e 22 13
e 22 21
e 22 37
e 23 4
e 23 14
e 23 15
e 23 33
e 24 1
e 24 12
e 24 17
e 24 22
e 25 3
e 25 5
e 25 33
e 25 34
e 26 14
e 26 21
e 26 28
e 26 30
e 27 3
e 27 8
e 27 16
e 27 26
e 28 1
e 28 11
e 28 12
e 28 22
e 29 13
e 29 16
e 29 22
e 29 22
e 30 12
e 30 16
e 30 24
e 30 29
e 31 3
e 31 14
e 31 16
e 31 24
e 32 5
e 32 24
e 32 30
e 32 31
e 33 9
e 33 17
e 33 34
e 33 34
e 34 5
e 34 12
e 34 13
e 34 35
e 35 8
e 35 18
e 35 32
e 35 34
e 36 7
e 36 33
e 36 37
e 36 38
e 37 2
e 37 2
e 37 6
e 37 11
e 38 4
e 38 10
e 38 29
e 38 37
